15
Adenine | Formula=C5H5N5 | Method=Unknown method | Charge=0 | Spin=0 | Multiplicity=1 | Units=angstrom | SourceUnits=angstrom
N      -1.19900000     -1.39970000      0.00000000
N      -2.07520000      0.64990000      0.00000000
N       0.03370000      1.85940000     -0.00010000
N       1.99980000      0.41500000      0.00000000
N       1.82410000     -1.97600000      0.00000000
C      -0.13590000     -0.54210000      0.00010000
C      -0.70560000      0.72410000      0.00010000
C       1.23590000     -0.70040000      0.00000000
C      -2.33860000     -0.63940000      0.00000000
C       1.36070000      1.60920000      0.00000000
H      -1.15660000     -2.41030000     -0.00020000
H      -3.32250000     -1.08640000     -0.00010000
H       2.00340000      2.48310000     -0.00010000
H       2.83220000     -2.05280000      0.00030000
H       1.25030000     -2.80820000      0.00040000
