12
C6H6 | Method: CCSD(T)=FULL/cc-pVDZ, Charge=0, Multiplicity=1
C       0.000000      1.409552      0.000000
C       1.220708      0.704776      0.000000
C       1.220708     -0.704776      0.000000
C       0.000000     -1.409552      0.000000
C      -1.220708     -0.704776      0.000000
C      -1.220708      0.704776      0.000000
H       0.000000      2.506399      0.000000
H       2.170605      1.253200      0.000000
H       2.170605     -1.253200      0.000000
H       0.000000     -2.506399      0.000000
H      -2.170605     -1.253200      0.000000
H      -2.170605      1.253200      0.000000
