30
Benzaanthracene | Formula=C18H12 | Method=B2PLYP=FULLUltrafine/cc-pVDZ | Charge=0 | Spin=0 | Multiplicity=1 | Units=angstrom | SourceUnits=angstrom
C       0.00000000      0.00000000      0.72680000
C       0.00000000      0.00000000     -0.72680000
C       0.00000000      1.23730000      1.41050000
C       0.00000000     -1.23730000      1.41050000
C       0.00000000      1.23730000     -1.41050000
C       0.00000000     -1.23730000     -1.41050000
C       0.00000000      2.45570000      0.72610000
C       0.00000000     -2.45570000      0.72610000
C       0.00000000      2.45570000     -0.72610000
C       0.00000000     -2.45570000     -0.72610000
C       0.00000000      3.71720000      1.41260000
C       0.00000000     -3.71720000      1.41260000
C       0.00000000      3.71720000     -1.41260000
C       0.00000000     -3.71720000     -1.41260000
C       0.00000000      4.89980000      0.71650000
C       0.00000000     -4.89980000      0.71650000
C       0.00000000      4.89980000     -0.71650000
C       0.00000000     -4.89980000     -0.71650000
H       0.00000000      1.23770000      2.50410000
H       0.00000000     -1.23770000      2.50410000
H       0.00000000      1.23770000     -2.50410000
H       0.00000000     -1.23770000     -2.50410000
H       0.00000000      3.71530000      2.50530000
H       0.00000000     -3.71530000      2.50530000
H       0.00000000      3.71530000     -2.50530000
H       0.00000000     -3.71530000     -2.50530000
H       0.00000000      5.85080000      1.25270000
H       0.00000000     -5.85080000      1.25270000
H       0.00000000      5.85080000     -1.25270000
H       0.00000000     -5.85080000     -1.25270000
