13
Cytosine | Formula=C4H5N3O | Method=(MMFF94) | Charge=0 | Spin=0 | Multiplicity=1 | Units=angstrom | SourceUnits=angstrom
O       2.21340000      1.11880000      0.00010000
N      -0.05950000      0.98160000      0.00010000
N      -2.44220000      0.92140000      0.00010000
N       1.29350000     -0.97440000      0.00000000
C      -1.24060000      0.26760000     -0.00010000
C      -1.16430000     -1.07260000     -0.00020000
C       1.20880000      0.40560000     -0.00030000
C       0.19080000     -1.64780000      0.00030000
H      -0.13310000      1.99460000      0.00030000
H      -2.02230000     -1.73170000     -0.00030000
H       0.23510000     -2.74870000      0.00050000
H      -3.30890000      0.39840000      0.00030000
H      -2.45330000      1.93320000      0.00060000
