16
Guanine | Formula=C5H5N5O | Method=Unknown method | Charge=0 | Spin=0 | Multiplicity=1 | Units=angstrom | SourceUnits=angstrom
O       0.19210000      2.66590000     -0.00040000
N      -2.07150000      0.65880000      0.00060000
N       1.57400000      0.80310000      0.00010000
N       0.75660000     -1.45360000     -0.00030000
N      -1.71940000     -1.54320000     -0.00060000
N       3.05490000     -1.01000000      0.00050000
C      -0.71800000      0.48850000     -0.00010000
C      -0.52450000     -0.87310000     -0.00040000
C       0.33830000      1.44860000     -0.00010000
C       1.74830000     -0.59240000      0.00000000
C      -2.63080000     -0.59260000      0.00050000
H      -2.57060000      1.53860000      0.00120000
H       2.40780000      1.38350000      0.00030000
H      -3.70150000     -0.73920000      0.00100000
H       3.29050000     -1.99650000      0.00060000
H       3.82230000     -0.34710000      0.00080000
