18
Naphthalene | Formula=C10H8 | Method=(B2PLYP=FULLUltrafine/cc-pVDZ) | Charge=0 | Spin=0 | Multiplicity=1 | Units=angstrom | SourceUnits=angstrom
C       0.00000000      1.24660000      1.40630000
C       0.00000000      2.43920000      0.71000000
C       0.00000000      2.43920000     -0.71000000
C       0.00000000      1.24660000     -1.40630000
C       0.00000000     -1.24660000     -1.40630000
C       0.00000000     -2.43920000     -0.71000000
C       0.00000000     -2.43920000      0.71000000
C       0.00000000     -1.24660000      1.40630000
C       0.00000000      0.00000000      0.71750000
C       0.00000000      0.00000000     -0.71750000
H       0.00000000      1.24360000      2.49900000
H       0.00000000      3.38820000      1.24980000
H       0.00000000      3.38820000     -1.24980000
H       0.00000000      1.24360000     -2.49900000
H       0.00000000     -1.24360000     -2.49900000
H       0.00000000     -3.38820000     -1.24980000
H       0.00000000     -3.38820000      1.24980000
H       0.00000000     -1.24360000      2.49900000
