36
Pentacene | Formula=C22H14 | Method= | Charge=0 | Spin=0 | Multiplicity=1 | Units=angstrom | SourceUnits=angstrom
C       1.22590000     -0.70430000     -0.00150000
C       1.22590000      0.70430000     -0.00130000
C      -1.22590000     -0.70430000     -0.00170000
C      -1.22590000      0.70430000     -0.00180000
C       0.00000000     -1.39100000     -0.00190000
C       0.00000000      1.39110000     -0.00170000
C       3.67700000     -0.70590000     -0.00020000
C       3.67690000      0.70580000      0.00050000
C      -3.67690000     -0.70590000      0.00000000
C      -3.67690000      0.70580000     -0.00070000
C       2.45130000     -1.39240000     -0.00130000
C       2.45130000      1.39230000     -0.00020000
C      -2.45130000     -1.39230000     -0.00090000
C      -2.45130000      1.39230000     -0.00180000
C       4.90240000     -1.39290000      0.00050000
C       4.90230000      1.39290000      0.00170000
C      -4.90240000     -1.39280000      0.00180000
C      -4.90230000      1.39290000      0.00030000
C       6.11060000     -0.69560000      0.00190000
C       6.11060000      0.69560000      0.00250000
C      -6.11070000     -0.69560000      0.00320000
C      -6.11060000      0.69560000      0.00240000
H       0.00000000     -2.48120000     -0.00180000
H       0.00000000      2.48130000     -0.00150000
H       2.45110000     -2.48250000     -0.00160000
H       2.45100000      2.48240000      0.00020000
H      -2.45110000     -2.48240000     -0.00050000
H      -2.45110000      2.48230000     -0.00200000
H       4.92600000     -2.48070000      0.00010000
H       4.92580000      2.48080000      0.00210000
H      -4.92590000     -2.48070000      0.00250000
H      -4.92590000      2.48070000     -0.00010000
H       7.05080000     -1.23930000      0.00250000
H       7.05070000      1.23940000      0.00360000
H      -7.05090000     -1.23920000      0.00480000
H      -7.05080000      1.23930000      0.00330000
