15
Thymine | Formula=C5H6N2O2 | Method=(MMFF94) | Charge=0 | Spin=0 | Multiplicity=1 | Units=angstrom | SourceUnits=angstrom
O      -1.51930000      1.80670000     -0.00090000
O       2.83940000      0.29130000     -0.00070000
N       0.66430000      1.06230000      0.00110000
N       1.11480000     -1.23160000     -0.00020000
C      -1.16120000     -0.54320000      0.00020000
C      -0.71290000      0.88020000      0.00040000
C      -0.22600000     -1.50130000     -0.00010000
C      -2.63000000     -0.81890000     -0.00010000
C       1.63100000      0.05450000      0.00030000
H      -0.47870000     -2.55530000     -0.00040000
H       1.00140000      2.02090000      0.00110000
H       1.75640000     -2.01910000     -0.00090000
H      -3.10040000     -0.38600000     -0.88890000
H      -3.10060000     -0.38620000      0.88870000
H      -2.84330000     -1.89310000     -0.00030000
