12
Uracil | Formula=C4H4N2O2 | Method=(MMFF94) | Charge=0 | Spin=0 | Multiplicity=1 | Units=angstrom | SourceUnits=angstrom
O       2.32640000      0.96510000      0.00010000
O      -2.29720000      1.02320000      0.00050000
N       0.01800000      1.01990000     -0.00020000
N       1.16370000     -1.02210000      0.00010000
C       1.25240000      0.36290000      0.00000000
C      -1.23150000      0.41410000     -0.00040000
C      -0.02680000     -1.69550000      0.00020000
C      -1.20490000     -1.06760000     -0.00020000
H       0.03820000      2.03570000     -0.00010000
H       2.01870000     -1.57020000      0.00040000
H      -2.14430000     -1.60630000     -0.00020000
H       0.04690000     -2.77610000      0.00040000
